NAME 
ROWS
 N  OBJ
 L  R0      
 L  R1      
 L  R2      
 E  R3      
 E  R4      
 E  R5      
 E  R6      
 E  R7      
 E  R8      
 E  R9      
 E  R10     
 E  R11     
 E  R12     
 E  R13     
 E  R14     
 E  R15     
 E  R16     
 E  R17     
 E  R18     
 E  R19     
 E  R20     
 E  R21     
 E  R22     
 E  R23     
 E  R24     
 E  R25     
 E  R26     
 E  R27     
COLUMNS
    MARKER    'MARKER'                 'INTORG'
    I0(13)    OBJ       -149
    I0(13)    R0        -19
    I0(13)    R1        -135
    I0(13)    R2        145
    I0(13)    R3        12
    I0(13)    R5        19
    I0(13)    R6        1
    I0(13)    R7        9
    I0(13)    R8        14
    I0(13)    R9        5
    I0(13)    R10       6
    I0(13)    R11       12
    I0(13)    R12       3
    I0(13)    R27       1
    I1(12)    OBJ       57
    I1(12)    R0        165
    I1(12)    R1        12
    I1(12)    R2        -186
    I1(12)    R3        2
    I1(12)    R6        11
    I1(12)    R7        8
    I1(12)    R10       -1
    I1(12)    R11       1
    I1(12)    R12       10
    I1(12)    R13       13
    I1(12)    R14       11
    I1(12)    R27       1
    I2(13)    OBJ       -174
    I2(13)    R0        -50
    I2(13)    R1        184
    I2(13)    R2        -71
    I2(13)    R3        11
    I2(13)    R4        -1
    I2(13)    R5        19
    I2(13)    R7        3
    I2(13)    R8        2
    I2(13)    R9        9
    I2(13)    R10       1
    I2(13)    R12       2
    I2(13)    R14       7
    I2(13)    R27       1
    I3(11)    OBJ       140
    I3(11)    R0        57
    I3(11)    R1        127
    I3(11)    R2        -179
    I3(11)    R6        -1
    I3(11)    R7        7
    I3(11)    R9        16
    I3(11)    R10       -1
    I3(11)    R12       -1
    I3(11)    R13       11
    I3(11)    R14       11
    I3(11)    R27       1
    I4(13)    OBJ       -111
    I4(13)    R0        -172
    I4(13)    R1        17
    I4(13)    R2        -16
    I4(13)    R4        16
    I4(13)    R5        16
    I4(13)    R8        19
    I4(13)    R9        1
    I4(13)    R10       12
    I4(13)    R11       7
    I4(13)    R12       10
    I4(13)    R13       2
    I4(13)    R14       13
    I4(13)    R27       1
    I5(13)    OBJ       -122
    I5(13)    R0        54
    I5(13)    R1        101
    I5(13)    R2        -153
    I5(13)    R4        6
    I5(13)    R5        13
    I5(13)    R6        6
    I5(13)    R7        19
    I5(13)    R9        3
    I5(13)    R10       17
    I5(13)    R11       17
    I5(13)    R13       8
    I5(13)    R14       8
    I5(13)    R27       1
    I6(16)    OBJ       186
    I6(16)    R0        -180
    I6(16)    R1        85
    I6(16)    R2        -43
    I6(16)    R3        12
    I6(16)    R4        14
    I6(16)    R5        13
    I6(16)    R6        10
    I6(16)    R7        16
    I6(16)    R8        9
    I6(16)    R9        2
    I6(16)    R10       8
    I6(16)    R11       18
    I6(16)    R12       9
    I6(16)    R13       3
    I6(16)    R14       12
    I6(16)    R27       1
    I7(15)    OBJ       -170
    I7(15)    R0        187
    I7(15)    R1        31
    I7(15)    R2        -199
    I7(15)    R3        14
    I7(15)    R4        19
    I7(15)    R6        6
    I7(15)    R7        4
    I7(15)    R8        19
    I7(15)    R9        3
    I7(15)    R10       4
    I7(15)    R11       19
    I7(15)    R12       3
    I7(15)    R13       2
    I7(15)    R14       13
    I7(15)    R27       1
    I8(14)    OBJ       96
    I8(14)    R0        81
    I8(14)    R1        -190
    I8(14)    R2        -100
    I8(14)    R3        18
    I8(14)    R4        11
    I8(14)    R5        14
    I8(14)    R7        18
    I8(14)    R9        16
    I8(14)    R10       17
    I8(14)    R11       7
    I8(14)    R12       19
    I8(14)    R13       4
    I8(14)    R14       15
    I8(14)    R27       1
    I9(13)    OBJ       1
    I9(13)    R0        -69
    I9(13)    R1        104
    I9(13)    R2        15
    I9(13)    R3        16
    I9(13)    R4        6
    I9(13)    R5        16
    I9(13)    R7        6
    I9(13)    R8        4
    I9(13)    R11       -1
    I9(13)    R12       19
    I9(13)    R13       3
    I9(13)    R14       9
    I9(13)    R27       1
    I10(14)   OBJ       178
    I10(14)   R0        -97
    I10(14)   R1        -99
    I10(14)   R2        38
    I10(14)   R4        18
    I10(14)   R5        -1
    I10(14)   R6        3
    I10(14)   R7        9
    I10(14)   R8        6
    I10(14)   R9        14
    I10(14)   R10       2
    I10(14)   R11       13
    I10(14)   R12       5
    I10(14)   R14       16
    I10(14)   R27       1
    I11(14)   OBJ       199
    I11(14)   R0        4
    I11(14)   R1        -137
    I11(14)   R2        106
    I11(14)   R3        4
    I11(14)   R4        17
    I11(14)   R5        15
    I11(14)   R6        3
    I11(14)   R7        8
    I11(14)   R8        15
    I11(14)   R9        4
    I11(14)   R10       1
    I11(14)   R12       3
    I11(14)   R13       15
    I11(14)   R27       1
    MARKER    'MARKER'                 'INTEND'
    C12(19)   OBJ       3
    C12(19)   R1        1
    C12(19)   R3        12
    C12(19)   R4        1
    C12(19)   R5        10
    C12(19)   R6        2
    C12(19)   R7        13
    C12(19)   R8        6
    C12(19)   R9        10
    C12(19)   R12       17
    C12(19)   R13       8
    C12(19)   R14       12
    C12(19)   R15       -1
    C12(19)   R16       8
    C12(19)   R17       17
    C12(19)   R18       11
    C12(19)   R20       4
    C12(19)   R22       17
    C12(19)   R23       14
    C12(19)   R26       6
    C13(24)   OBJ       8
    C13(24)   R0        5
    C13(24)   R1        8
    C13(24)   R2        -2
    C13(24)   R3        11
    C13(24)   R4        10
    C13(24)   R5        16
    C13(24)   R6        -1
    C13(24)   R7        3
    C13(24)   R9        7
    C13(24)   R10       14
    C13(24)   R11       19
    C13(24)   R12       6
    C13(24)   R13       2
    C13(24)   R14       14
    C13(24)   R15       9
    C13(24)   R16       15
    C13(24)   R17       5
    C13(24)   R19       1
    C13(24)   R20       2
    C13(24)   R21       7
    C13(24)   R22       10
    C13(24)   R23       10
    C13(24)   R24       5
    C13(24)   R26       10
    C14(16)   OBJ       -2
    C14(16)   R0        -10
    C14(16)   R1        -5
    C14(16)   R3        5
    C14(16)   R4        13
    C14(16)   R6        3
    C14(16)   R8        5
    C14(16)   R9        8
    C14(16)   R10       -1
    C14(16)   R11       19
    C14(16)   R12       10
    C14(16)   R14       14
    C14(16)   R18       12
    C14(16)   R21       19
    C14(16)   R23       4
    C14(16)   R24       16
    C14(16)   R25       9
    C15(24)   OBJ       -8
    C15(24)   R0        8
    C15(24)   R1        -6
    C15(24)   R2        -2
    C15(24)   R4        18
    C15(24)   R5        10
    C15(24)   R6        19
    C15(24)   R7        14
    C15(24)   R8        13
    C15(24)   R9        2
    C15(24)   R11       1
    C15(24)   R12       8
    C15(24)   R13       7
    C15(24)   R14       -1
    C15(24)   R15       14
    C15(24)   R16       18
    C15(24)   R17       13
    C15(24)   R18       2
    C15(24)   R19       15
    C15(24)   R20       16
    C15(24)   R21       8
    C15(24)   R22       5
    C15(24)   R24       4
    C15(24)   R25       19
    C15(24)   R26       13
    C16(24)   OBJ       1
    C16(24)   R0        6
    C16(24)   R1        -4
    C16(24)   R2        -10
    C16(24)   R3        12
    C16(24)   R4        10
    C16(24)   R6        17
    C16(24)   R7        11
    C16(24)   R8        10
    C16(24)   R9        12
    C16(24)   R10       5
    C16(24)   R11       4
    C16(24)   R12       9
    C16(24)   R13       -1
    C16(24)   R15       5
    C16(24)   R16       5
    C16(24)   R17       3
    C16(24)   R19       6
    C16(24)   R20       14
    C16(24)   R21       -1
    C16(24)   R22       2
    C16(24)   R23       7
    C16(24)   R24       10
    C16(24)   R25       12
    C16(24)   R26       -1
    C17(25)   OBJ       -8
    C17(25)   R0        -6
    C17(25)   R1        2
    C17(25)   R2        -8
    C17(25)   R3        4
    C17(25)   R4        17
    C17(25)   R5        10
    C17(25)   R6        17
    C17(25)   R7        -1
    C17(25)   R8        5
    C17(25)   R9        12
    C17(25)   R10       17
    C17(25)   R11       5
    C17(25)   R12       9
    C17(25)   R13       15
    C17(25)   R14       5
    C17(25)   R15       1
    C17(25)   R16       2
    C17(25)   R17       13
    C17(25)   R18       5
    C17(25)   R19       14
    C17(25)   R20       14
    C17(25)   R21       7
    C17(25)   R22       15
    C17(25)   R24       14
    C17(25)   R26       6
    C18(23)   OBJ       6
    C18(23)   R0        7
    C18(23)   R1        1
    C18(23)   R2        -10
    C18(23)   R3        17
    C18(23)   R4        16
    C18(23)   R5        13
    C18(23)   R6        16
    C18(23)   R7        1
    C18(23)   R8        16
    C18(23)   R9        3
    C18(23)   R10       7
    C18(23)   R12       2
    C18(23)   R13       13
    C18(23)   R15       10
    C18(23)   R16       10
    C18(23)   R17       17
    C18(23)   R18       15
    C18(23)   R20       19
    C18(23)   R21       15
    C18(23)   R22       13
    C18(23)   R23       3
    C18(23)   R24       11
    C18(23)   R26       11
    C19(22)   OBJ       -7
    C19(22)   R0        -10
    C19(22)   R1        -9
    C19(22)   R2        -8
    C19(22)   R3        15
    C19(22)   R4        10
    C19(22)   R6        6
    C19(22)   R8        4
    C19(22)   R9        16
    C19(22)   R10       4
    C19(22)   R11       1
    C19(22)   R12       -1
    C19(22)   R13       16
    C19(22)   R14       14
    C19(22)   R16       1
    C19(22)   R17       4
    C19(22)   R18       16
    C19(22)   R19       19
    C19(22)   R20       14
    C19(22)   R21       10
    C19(22)   R22       -1
    C19(22)   R23       6
    C19(22)   R26       13
    C20(22)   OBJ       -9
    C20(22)   R0        1
    C20(22)   R1        -4
    C20(22)   R2        -7
    C20(22)   R3        12
    C20(22)   R4        2
    C20(22)   R5        -1
    C20(22)   R6        8
    C20(22)   R7        17
    C20(22)   R8        12
    C20(22)   R10       1
    C20(22)   R11       13
    C20(22)   R12       -1
    C20(22)   R13       10
    C20(22)   R14       1
    C20(22)   R15       12
    C20(22)   R16       5
    C20(22)   R18       8
    C20(22)   R21       4
    C20(22)   R22       7
    C20(22)   R23       8
    C20(22)   R24       2
    C20(22)   R26       15
    C21(23)   OBJ       5
    C21(23)   R0        -3
    C21(23)   R1        8
    C21(23)   R2        -8
    C21(23)   R3        15
    C21(23)   R4        -1
    C21(23)   R5        14
    C21(23)   R6        15
    C21(23)   R7        7
    C21(23)   R8        11
    C21(23)   R9        17
    C21(23)   R10       19
    C21(23)   R12       17
    C21(23)   R13       19
    C21(23)   R14       18
    C21(23)   R15       18
    C21(23)   R17       10
    C21(23)   R18       13
    C21(23)   R19       13
    C21(23)   R20       9
    C21(23)   R21       19
    C21(23)   R22       12
    C21(23)   R23       -1
    C21(23)   R26       6
    C22(20)   OBJ       -3
    C22(20)   R0        7
    C22(20)   R1        -3
    C22(20)   R2        6
    C22(20)   R4        16
    C22(20)   R5        12
    C22(20)   R6        3
    C22(20)   R7        6
    C22(20)   R10       18
    C22(20)   R11       19
    C22(20)   R14       8
    C22(20)   R15       12
    C22(20)   R16       -1
    C22(20)   R17       4
    C22(20)   R18       18
    C22(20)   R19       16
    C22(20)   R20       5
    C22(20)   R22       6
    C22(20)   R24       15
    C22(20)   R25       16
    C22(20)   R26       18
    C23(19)   R0        3
    C23(19)   R1        -8
    C23(19)   R3        17
    C23(19)   R4        18
    C23(19)   R5        8
    C23(19)   R6        14
    C23(19)   R8        13
    C23(19)   R10       8
    C23(19)   R11       8
    C23(19)   R14       9
    C23(19)   R15       6
    C23(19)   R18       5
    C23(19)   R19       5
    C23(19)   R20       6
    C23(19)   R21       8
    C23(19)   R22       11
    C23(19)   R23       1
    C23(19)   R25       11
    C23(19)   R26       3
    C24(24)   OBJ       -7
    C24(24)   R0        -7
    C24(24)   R1        -10
    C24(24)   R2        1
    C24(24)   R3        5
    C24(24)   R4        13
    C24(24)   R5        1
    C24(24)   R6        16
    C24(24)   R7        3
    C24(24)   R9        18
    C24(24)   R10       17
    C24(24)   R11       8
    C24(24)   R12       8
    C24(24)   R13       4
    C24(24)   R14       14
    C24(24)   R16       13
    C24(24)   R17       1
    C24(24)   R18       15
    C24(24)   R19       10
    C24(24)   R20       5
    C24(24)   R22       18
    C24(24)   R23       17
    C24(24)   R24       12
    C24(24)   R25       13
    C24(24)   R26       17
    C25(1)    R3        1
    C26(1)    R4        1
    C27(1)    R5        1
    C28(1)    R6        1
    C29(1)    R7        1
    C30(1)    R8        1
    C31(1)    R9        1
    C32(1)    R10       1
    C33(1)    R11       1
    C34(1)    R12       1
    C35(1)    R13       1
    C36(1)    R14       1
    C37(1)    R15       1
    C38(1)    R16       1
    C39(1)    R17       1
    C40(1)    R18       1
    C41(1)    R19       1
    C42(1)    R20       1
    C43(1)    R21       1
    C44(1)    R22       1
    C45(1)    R23       1
    C46(1)    R24       1
    C47(1)    R25       1
    C48(1)    R26       1
    C49(1)    R27       1
RHS
    RHS1      R0        1.6974864700053365e+02
    RHS1      R1        1.5495643722844730e+02
    RHS1      R2        -3.0858453388215565e+02
    RHS1      R3        92
    RHS1      R4        55
    RHS1      R5        75
    RHS1      R6        81
    RHS1      R7        97
    RHS1      R8        84
    RHS1      R9        91
    RHS1      R10       61
    RHS1      R11       88
    RHS1      R12       50
    RHS1      R13       62
    RHS1      R14       55
    RHS1      R15       77
    RHS1      R16       59
    RHS1      R17       65
    RHS1      R18       57
    RHS1      R19       73
    RHS1      R20       73
    RHS1      R21       67
    RHS1      R22       52
    RHS1      R23       50
    RHS1      R24       55
    RHS1      R25       83
    RHS1      R26       68
    RHS1      R27       4
BOUNDS
 UP BND1      I0(13)    1
 UP BND1      I1(12)    1
 UP BND1      I2(13)    1
 UP BND1      I3(11)    1
 UP BND1      I4(13)    1
 UP BND1      I5(13)    1
 UP BND1      I6(16)    1
 UP BND1      I7(15)    1
 UP BND1      I8(14)    1
 UP BND1      I9(13)    1
 UP BND1      I10(14)   1
 UP BND1      I11(14)   1
ENDATA
